Gurobi Optimizer version 9.1.2 build v9.1.2rc0 (linux64)
Thread count: 36 physical cores, 72 logical processors, using up to 32 threads
Optimize a model with 12 rows, 57 columns and 590 nonzeros
Model fingerprint: 0xf32eec78
Model has 47 quadratic constraints
Coefficient statistics:
  Matrix range     [2e-05, 3e+00]
  QMatrix range    [1e+00, 1e+00]
  QLMatrix range   [1e+00, 1e+00]
  Objective range  [8e-03, 7e-01]
  Bounds range     [1e+00, 1e+00]
  RHS range        [1e+00, 1e+00]
Presolve removed 9 rows and 0 columns

Continuous model is non-convex -- solving as a MIP.

Presolve removed 9 rows and 0 columns
Presolve time: 0.00s
Presolved: 189 rows, 57 columns, 443 nonzeros
Presolved model has 47 bilinear constraint(s)
Variable types: 57 continuous, 0 integer (0 binary)

Root relaxation: objective -1.743721e+00, 44 iterations, 0.00 seconds

    Nodes    |    Current Node    |     Objective Bounds      |     Work
 Expl Unexpl |  Obj  Depth IntInf | Incumbent    BestBd   Gap | It/Node Time

     0     0   -1.74372    0   38          -   -1.74372      -     -    0s
H    0     0                       0.6147548   -1.74372   384%     -    0s
     0     0   -1.64739    0    1    0.61475   -1.64739   368%     -    0s
H    0     0                      -1.6450460   -1.64739  0.14%     -    0s
     0     0     cutoff    0        -1.64505   -1.64505  0.00%     -    0s

Cutting planes:
  RLT: 25
  BQP: 3

Explored 1 nodes (76 simplex iterations) in 0.01 seconds
Thread count was 32 (of 72 available processors)

Solution count 2: -1.64505 0.614755 
No other solutions better than -1.64505

Optimal solution found (tolerance 1.00e-04)
Best objective -1.645045978473e+00, best bound -1.645045978473e+00, gap 0.0000%

User-callback calls 78, time in user-callback 0.00 sec
Gurobi Optimizer version 9.1.2 build v9.1.2rc0 (linux64)
Thread count: 36 physical cores, 72 logical processors, using up to 32 threads
Optimize a model with 24 rows, 125 columns and 2580 nonzeros
Model fingerprint: 0x8188bd43
Model has 105 quadratic constraints
Coefficient statistics:
  Matrix range     [4e-06, 5e+01]
  QMatrix range    [1e+00, 1e+00]
  QLMatrix range   [1e+00, 1e+00]
  Objective range  [2e-02, 1e+00]
  Bounds range     [1e+00, 1e+00]
  RHS range        [1e+00, 1e+00]
Presolve removed 10 rows and 0 columns

Continuous model is non-convex -- solving as a MIP.

Presolve removed 10 rows and 0 columns
Presolve time: 0.00s
Presolved: 429 rows, 125 columns, 2142 nonzeros
Presolved model has 105 bilinear constraint(s)
Variable types: 125 continuous, 0 integer (0 binary)

Root relaxation: objective -7.405073e+00, 134 iterations, 0.00 seconds

    Nodes    |    Current Node    |     Objective Bounds      |     Work
 Expl Unexpl |  Obj  Depth IntInf | Incumbent    BestBd   Gap | It/Node Time

     0     0   -7.40507    0   95          -   -7.40507      -     -    0s
H    0     0                       0.1683120   -7.40507  4500%     -    0s
     0     0   -5.72495    0   83    0.16831   -5.72495  3501%     -    0s
H    0     0                      -1.1924430   -5.72495   380%     -    0s
     0     0   -5.67693    0   83   -1.19244   -5.67693   376%     -    0s
     0     0   -5.47516    0   70   -1.19244   -5.47516   359%     -    0s
H    0     0                      -2.4984784   -5.47516   119%     -    0s
     0     0   -5.44487    0   70   -2.49848   -5.44487   118%     -    0s
     0     0   -5.39093    0   70   -2.49848   -5.39093   116%     -    0s
     0     0   -5.38612    0   70   -2.49848   -5.38612   116%     -    0s
     0     0   -5.37005    0   70   -2.49848   -5.37005   115%     -    0s
     0     0   -5.36885    0   83   -2.49848   -5.36885   115%     -    0s
     0     0   -5.35633    0   70   -2.49848   -5.35633   114%     -    0s
     0     0   -5.35279    0   70   -2.49848   -5.35279   114%     -    0s
     0     0   -5.35071    0   83   -2.49848   -5.35071   114%     -    0s
     0     0   -5.35015    0   70   -2.49848   -5.35015   114%     -    0s
     0     0   -5.34775    0   70   -2.49848   -5.34775   114%     -    0s
H    0     0                      -3.5124030   -5.34775  52.3%     -    0s
H    0     0                      -4.3572472   -5.34775  22.7%     -    0s
H    0     0                      -4.3701650   -5.34775  22.4%     -    0s
     0     2   -5.34775    0   70   -4.37017   -5.34775  22.4%     -    0s
*  611   237              22      -4.4089835   -4.58744  4.05%  27.0    0s
*  710   214              25      -4.4114025   -4.58744  3.99%  24.0    0s
*  718   214              22      -4.4240346   -4.58744  3.69%  23.8    0s
*  867    51              24      -4.4243508   -4.44690  0.51%  20.2    0s
*  893    51              23      -4.4243625   -4.43394  0.22%  19.8    0s
* 1036    19              20      -4.4244200   -4.42547  0.02%  17.2    0s
* 1040    19              19      -4.4244273   -4.42547  0.02%  17.2    0s
* 1050    19              20      -4.4244342   -4.42547  0.02%  17.1    0s
* 1082     6              25      -4.4244355   -4.42496  0.01%  16.6    0s
* 1085     6              25      -4.4244365   -4.42496  0.01%  16.5    0s
* 1098     6              25      -4.4244366   -4.42496  0.01%  16.4    0s
* 1110     0              25      -4.4244369   -4.42446  0.00%  16.2    0s

Cutting planes:
  RLT: 60
  BQP: 6
  PSD: 52

Explored 1114 nodes (18398 simplex iterations) in 0.55 seconds
Thread count was 32 (of 72 available processors)

Solution count 10: -4.42444 -4.42444 -4.42444 ... -4.42403
No other solutions better than -4.42444

Optimal solution found (tolerance 1.00e-04)
Best objective -4.424436859888e+00, best bound -4.424436859888e+00, gap 0.0000%

User-callback calls 2499, time in user-callback 0.00 sec



objective value: -4.424436859887628
objective bound: -4.424436859887628
x_opt: [0.10216818649620807, 0.0, 0.34484876818668214, 0.0, 1.0, 0.020266810427574115, 1.0, 1.0, 1.0, 0.0, 0.0, 1.0, 0.2653882415457289, 0.0, 0.0, 0.041378651575066025, 0.0, 0.0, 0.0, 0.0]
GUROBI solution time: 0.5503230094909668




